CUST NO.   XCOORD.    YCOORD.    DEMAND   READY TIME   DUE DATE   SERVICE TIME
    1      35.00      35.00       0.00       0.00    1000.00       0.00
    2      41.00      49.00      10.00       0.00     974.00      10.00
    3      35.00      17.00       7.00       0.00     972.00      10.00
    4      55.00      45.00      13.00       0.00     967.00      10.00
    5      55.00      20.00      19.00     620.00     860.00      10.00
    6      15.00      30.00      26.00       0.00     969.00      10.00
    7      25.00      30.00       3.00       0.00     978.00      10.00
    8      20.00      50.00       5.00       0.00     968.00      10.00
    9      10.00      43.00       9.00     323.00     563.00      10.00
   10      55.00      60.00      16.00     329.00     569.00      10.00
   11      30.00      60.00      16.00       0.00     964.00      10.00
   12      20.00      65.00      12.00     146.00     386.00      10.00
   13      50.00      35.00      19.00       0.00     975.00      10.00
   14      30.00      25.00      23.00     639.00     879.00      10.00
   15      15.00      10.00      20.00       0.00     957.00      10.00
   16      30.00       5.00       8.00     118.00     358.00      10.00
   17      10.00      20.00      19.00       0.00     960.00      10.00
   18       5.00      30.00       2.00       0.00     959.00      10.00
   19      20.00      40.00      12.00       0.00     974.00      10.00
   20      15.00      60.00      17.00       0.00     957.00      10.00
   21      45.00      65.00       9.00       0.00     958.00      10.00
   22      45.00      20.00      11.00       0.00     971.00      10.00
   23      45.00      10.00      18.00       0.00     963.00      10.00
   24      55.00       5.00      29.00     146.00     386.00      10.00
   25      65.00      35.00       3.00       0.00     960.00      10.00
   26      65.00      20.00       6.00     716.00     956.00      10.00
   27      45.00      30.00      17.00       0.00     978.00      10.00
   28      35.00      40.00      16.00       0.00     985.00      10.00
   29      41.00      37.00      16.00       0.00     983.00      10.00
   30      64.00      42.00       9.00       0.00     960.00      10.00
   31      40.00      60.00      21.00       0.00     964.00      10.00
   32      31.00      52.00      27.00       0.00     972.00      10.00
   33      35.00      69.00      23.00       0.00     956.00      10.00
   34      53.00      52.00      11.00       0.00     965.00      10.00
   35      65.00      55.00      14.00       0.00     953.00      10.00
   36      63.00      65.00       8.00       0.00     948.00      10.00
   37       2.00      60.00       5.00       0.00     948.00      10.00
   38      20.00      20.00       8.00       0.00     968.00      10.00
   39       5.00       5.00      16.00     234.00     474.00      10.00
   40      60.00      12.00      31.00       0.00     956.00      10.00
   41      40.00      25.00       9.00       0.00     978.00      10.00
   42      42.00       7.00       5.00       0.00     961.00      10.00
   43      24.00      12.00       5.00       0.00     964.00      10.00
   44      23.00       3.00       7.00       0.00     955.00      10.00
   45      11.00      14.00      18.00     167.00     407.00      10.00
   46       6.00      38.00      16.00       0.00     960.00      10.00
   47       2.00      48.00       1.00       0.00     954.00      10.00
   48       8.00      56.00      27.00       0.00     955.00      10.00
   49      13.00      52.00      36.00       0.00     962.00      10.00
   50       6.00      68.00      30.00       0.00     946.00      10.00
   51      47.00      47.00      13.00       0.00     973.00      10.00
